<number of tasks>
70

<cycle time>
176

<task times>
1 17
2 66
3 54
4 52
5 6
6 88
7 21
8 128
9 68
10 70
11 85
12 21
13 134
14 135
15 94
16 90
17 50
18 143
19 19
20 54
21 50
22 40
23 73
24 12
25 152
26 42
27 45
28 74
29 26
30 11
31 31
32 50
33 102
34 46
35 35
36 40
37 2
38 1
39 3
40 13
41 16
42 25
43 21
44 43
45 30
46 83
47 89
48 56
49 59
50 43
51 11
52 26
53 44
54 121
55 38
56 68
57 22
58 7
59 16
60 32
61 25
62 27
63 156
64 28
65 15
66 26
67 18
68 72
69 23
70 27

<precedence relations>
1,2
1,41
1,69
1,70
2,3
3,4
3,68
4,6
4,7
5,6
5,24
5,30
6,8
7,8
8,12
9,10
10,11
11,12
12,13
12,14
13,23
14,23
15,16
16,17
16,18
17,19
18,19
19,20
19,22
19,57
20,21
21,23
22,23
23,25
23,31
23,33
24,25
25,26
25,27
25,28
25,29
26,35
27,35
28,35
29,35
30,31
31,32
32,35
33,34
34,35
35,36
35,44
35,48
35,51
35,53
35,56
35,60
35,61
35,62
36,37
37,38
38,39
39,40
40,42
41,42
42,43
43,50
44,45
45,46
46,47
47,50
48,49
49,50
51,52
52,54
53,54
54,55
57,58
58,59
59,60
61,65
62,63
63,64
64,65
64,66
64,67

<setup times forward>
1,9:5
1,10:5
1,11:8
1,15:15
1,16:5
1,17:8
1,20:5
1,21:5
1,22:13
1,41:5
1,57:8
1,58:8
1,59:2
1,69:11
1,70:4
2,9:5
2,10:5
2,11:8
2,15:15
2,16:5
2,17:8
2,20:5
2,21:5
2,22:13
2,41:5
2,57:8
2,58:8
2,59:2
2,69:11
2,70:4
3,4:15
3,9:5
3,10:5
3,11:8
3,15:15
3,16:5
3,17:8
3,20:5
3,21:5
3,22:13
3,41:5
3,57:8
3,58:8
3,59:2
3,68:5
3,69:11
3,70:4
4,5:15
4,6:20
4,9:20
4,10:10
4,11:23
4,16:10
4,17:23
4,18:15
4,19:15
4,20:20
4,21:20
4,22:28
4,24:15
4,30:15
4,41:20
4,57:7
4,58:7
4,59:17
4,68:20
4,69:4
4,70:11
5,4:15
5,6:5
5,7:15
5,9:5
5,10:5
5,11:8
5,15:15
5,16:5
5,17:8
5,20:5
5,21:5
5,22:13
5,41:5
5,57:8
5,58:8
5,59:2
5,68:5
5,69:11
5,70:4
6,7:20
6,8:9
6,10:10
6,11:3
6,15:20
6,16:10
6,17:3
6,18:5
6,19:5
6,22:8
6,24:5
6,30:5
6,57:13
6,58:13
6,59:3
6,69:16
6,70:9
7,5:15
7,6:20
7,8:11
7,9:20
7,10:10
7,11:23
7,16:10
7,17:23
7,18:15
7,19:15
7,20:20
7,21:20
7,22:28
7,24:15
7,30:15
7,41:20
7,57:7
7,58:7
7,59:17
7,68:20
7,69:4
7,70:11
8,9:9
8,10:1
8,11:12
8,12:12
8,15:11
8,16:1
8,17:12
8,18:4
8,19:4
8,20:9
8,21:9
8,22:17
8,24:4
8,30:4
8,41:9
8,57:4
8,58:4
8,59:6
8,68:9
8,69:7
9,1:5
9,2:5
9,3:5
9,4:20
9,5:5
9,7:20
9,8:9
9,10:10
9,15:20
9,16:10
9,17:3
9,18:5
9,19:5
9,22:8
9,24:5
9,30:5
9,57:13
9,58:13
9,59:3
9,69:16
9,70:9
10,1:5
10,2:5
10,3:5
10,4:10
10,5:5
10,6:10
10,7:10
10,8:1
10,11:13
10,15:10
10,17:13
10,18:5
10,19:5
10,20:10
10,21:10
10,22:18
10,24:5
10,30:5
10,41:10
10,57:3
10,58:3
10,59:7
10,68:10
10,69:6
10,70:1
11,1:8
11,2:8
11,3:8
11,4:23
11,5:8
11,6:3
11,7:23
11,8:12
11,15:23
11,16:13
11,18:8
11,19:8
11,20:3
11,21:3
11,22:5
11,24:8
11,30:8
11,41:3
11,57:16
11,58:16
11,59:6
11,68:3
11,69:19
11,70:12
12,13:16
12,14:5
12,15:23
12,16:13
12,18:8
12,19:8
12,20:3
12,21:3
12,22:5
12,24:8
12,30:8
12,41:3
12,57:16
12,58:16
12,59:6
12,68:3
12,69:19
12,70:12
13,14:21
13,15:7
13,16:3
13,17:16
13,18:8
13,19:8
13,20:13
13,21:13
13,22:21
13,23:25
13,24:8
13,30:8
13,41:13
13,59:10
13,68:13
13,69:3
13,70:4
14,13:21
14,15:28
14,16:18
14,17:5
14,18:13
14,19:13
14,20:8
14,21:8
14,23:4
14,24:13
14,30:13
14,41:8
14,57:21
14,58:21
14,59:11
14,68:8
14,69:24
14,70:17
15,1:15
15,2:15
15,3:15
15,5:15
15,6:20
15,8:11
15,9:20
15,10:10
15,11:23
15,12:23
15,13:7
15,14:28
15,16:10
15,24:15
15,30:15
15,41:20
15,68:20
15,69:4
15,70:11
16,1:5
16,2:5
16,3:5
16,4:10
16,5:5
16,6:10
16,7:10
16,8:1
16,9:10
16,11:13
16,12:13
16,13:3
16,14:18
16,17:13
16,18:5
16,24:5
16,30:5
16,41:10
16,68:10
16,69:6
16,70:1
17,1:8
17,2:8
17,3:8
17,4:23
17,5:8
17,6:3
17,7:23
17,8:12
17,9:3
17,10:13
17,13:16
17,14:5
17,18:8
17,19:8
17,24:8
17,30:8
17,41:3
17,68:3
17,69:19
17,70:12
18,4:15
18,6:5
18,7:15
18,8:4
18,9:5
18,10:5
18,11:8
18,12:8
18,13:8
18,14:13
18,17:8
18,41:5
18,68:5
18,69:11
18,70:4
19,4:15
19,6:5
19,7:15
19,8:4
19,9:5
19,10:5
19,11:8
19,12:8
19,13:8
19,14:13
19,20:5
19,22:13
19,41:5
19,57:8
19,68:5
19,69:11
19,70:4
20,1:5
20,2:5
20,3:5
20,4:20
20,5:5
20,7:20
20,8:9
20,10:10
20,11:3
20,12:3
20,13:13
20,14:8
20,22:8
20,24:5
20,30:5
20,57:13
20,58:13
20,59:3
20,69:16
20,70:9
21,1:5
21,2:5
21,3:5
21,4:20
21,5:5
21,7:20
21,8:9
21,10:10
21,11:3
21,12:3
21,13:13
21,14:8
21,22:8
21,23:12
21,24:5
21,30:5
21,57:13
21,58:13
21,59:3
21,69:16
21,70:9
22,1:13
22,2:13
22,3:13
22,4:28
22,5:13
22,6:8
22,7:28
22,8:17
22,9:8
22,10:18
22,11:5
22,12:5
22,13:21
22,20:8
22,21:8
22,23:4
22,24:13
22,30:13
22,41:8
22,57:21
22,58:21
22,59:11
22,68:8
22,69:24
22,70:17
23,24:17
23,25:15
23,30:17
23,31:21
23,41:12
23,57:25
23,58:25
23,59:15
23,68:12
23,69:28
23,70:21
24,4:15
24,6:5
24,7:15
24,8:4
24,9:5
24,10:5
24,11:8
24,12:8
24,13:8
24,14:13
24,15:15
24,16:5
24,17:8
24,20:5
24,21:5
24,22:13
24,23:17
24,25:2
24,31:4
24,32:4
24,33:17
24,34:11
24,41:5
24,57:8
24,58:8
24,59:2
24,68:5
24,69:11
24,70:4
25,26:13
25,27:13
25,28:6
25,29:13
25,30:2
25,31:6
25,32:6
25,33:15
25,34:13
25,41:3
25,57:10
25,58:10
25,68:3
25,69:13
25,70:6
26,28:7
26,30:11
26,31:7
26,32:7
26,33:28
26,35:30
26,41:16
26,57:3
26,58:3
26,59:13
26,68:16
26,70:7
27,28:7
27,30:11
27,31:7
27,32:7
27,33:28
27,35:30
27,41:16
27,57:3
27,58:3
27,59:13
27,68:16
27,70:7
28,26:7
28,27:7
28,29:7
28,30:4
28,33:21
28,34:7
28,35:23
28,41:9
28,57:4
28,58:4
28,59:6
28,68:9
28,69:7
29,28:7
29,30:11
29,31:7
29,32:7
29,33:28
29,35:30
29,41:16
29,57:3
29,58:3
29,59:13
29,68:16
29,70:7
30,4:15
30,6:5
30,7:15
30,8:4
30,9:5
30,10:5
30,11:8
30,12:8
30,13:8
30,14:13
30,15:15
30,16:5
30,17:8
30,20:5
30,21:5
30,22:13
30,23:17
30,25:2
30,26:11
30,27:11
30,28:4
30,29:11
30,31:4
30,33:17
30,34:11
30,41:5
30,57:8
30,58:8
30,59:2
30,68:5
30,69:11
30,70:4
31,24:4
31,25:6
31,26:7
31,27:7
31,29:7
31,33:21
31,34:7
31,41:9
31,57:4
31,58:4
31,59:6
31,68:9
31,69:7
32,24:4
32,25:6
32,26:7
32,27:7
32,29:7
32,33:21
32,34:7
32,35:23
32,41:9
32,57:4
32,58:4
32,59:6
32,68:9
32,69:7
33,24:17
33,25:15
33,26:28
33,27:28
33,28:21
33,29:28
33,30:17
33,31:21
33,32:21
33,34:28
33,41:12
33,57:25
33,58:25
33,59:15
33,68:12
33,69:28
33,70:21
34,24:11
34,25:13
34,28:7
34,30:11
34,31:7
34,32:7
34,35:30
34,41:16
34,57:3
34,58:3
34,59:13
34,68:16
34,70:7
35,36:33
35,41:14
35,48:30
35,53:33
35,56:23
35,57:27
35,58:27
35,59:17
35,60:30
35,61:30
35,68:14
35,69:30
35,70:23
36,41:19
36,44:33
36,45:33
36,47:10
36,48:3
36,49:4
36,51:33
36,52:33
36,54:17
36,55:4
36,56:10
36,57:6
36,58:6
36,59:16
36,60:3
36,61:3
36,62:33
36,63:31
36,64:17
36,65:4
36,66:17
36,67:10
36,68:19
36,69:3
36,70:10
37,41:19
37,44:33
37,45:33
37,47:10
37,48:3
37,49:4
37,51:33
37,52:33
37,54:17
37,55:4
37,56:10
37,57:6
37,58:6
37,59:16
37,60:3
37,61:3
37,62:33
37,63:31
37,64:17
37,65:4
37,66:17
37,67:10
37,68:19
37,69:3
37,70:10
38,41:19
38,44:33
38,45:33
38,47:10
38,48:3
38,49:4
38,51:33
38,52:33
38,54:17
38,55:4
38,56:10
38,57:6
38,58:6
38,59:16
38,60:3
38,61:3
38,62:33
38,63:31
38,64:17
38,65:4
38,66:17
38,67:10
38,68:19
38,69:3
38,70:10
39,40:3
39,41:19
39,44:33
39,45:33
39,47:10
39,48:3
39,49:4
39,51:33
39,52:33
39,54:17
39,55:4
39,56:10
39,57:6
39,58:6
39,59:16
39,60:3
39,61:3
39,62:33
39,63:31
39,64:17
39,65:4
39,66:17
39,67:10
39,68:19
39,69:3
39,70:10
40,41:16
40,44:30
40,45:30
40,46:3
40,47:7
40,49:1
40,51:30
40,52:30
40,53:3
40,54:14
40,55:1
40,56:7
40,57:3
40,58:3
40,59:13
40,62:30
40,63:28
40,64:14
40,65:1
40,66:14
40,67:7
40,68:16
40,70:7
41,2:5
41,3:5
41,4:20
41,5:5
41,7:20
41,8:9
41,10:10
41,11:3
41,12:3
41,13:13
41,14:8
41,15:20
41,16:10
41,17:3
41,18:5
41,19:5
41,22:8
41,23:12
41,24:5
41,25:3
41,26:16
41,27:16
41,28:9
41,29:16
41,30:5
41,31:9
41,32:9
41,33:12
41,34:16
41,35:14
41,36:19
41,37:19
41,38:19
41,39:19
41,40:16
41,42:16
41,44:14
41,45:14
41,46:19
41,47:9
41,48:16
41,49:15
41,51:14
41,52:14
41,53:19
41,54:2
41,55:15
41,56:9
41,57:13
41,58:13
41,59:3
41,60:16
41,61:16
41,62:14
41,63:12
41,64:2
41,65:15
41,66:2
41,67:9
41,69:16
41,70:9
42,43:1
42,44:30
42,45:30
42,46:3
42,47:7
42,49:1
42,51:30
42,52:30
42,53:3
42,54:14
42,55:1
42,56:7
42,57:3
42,58:3
42,59:13
42,62:30
42,63:28
42,64:14
42,65:1
42,66:14
42,67:7
42,68:16
42,70:7
43,44:29
43,45:29
43,46:4
43,47:6
43,48:1
43,51:29
43,52:29
43,53:4
43,54:13
43,56:6
43,57:2
43,58:2
43,59:12
43,60:1
43,61:1
43,62:29
43,63:27
43,64:13
43,66:13
43,67:6
43,68:15
43,69:1
43,70:6
44,36:33
44,37:33
44,38:33
44,39:33
44,40:30
44,41:14
44,42:30
44,43:29
44,48:30
44,49:29
44,53:33
44,54:16
44,55:29
44,56:23
44,57:27
44,58:27
44,59:17
44,60:30
44,61:30
44,63:2
44,64:16
44,65:29
44,66:16
44,67:23
44,68:14
44,69:30
44,70:23
45,36:33
45,37:33
45,38:33
45,39:33
45,40:30
45,41:14
45,42:30
45,43:29
45,46:33
45,48:30
45,49:29
45,53:33
45,54:16
45,55:29
45,56:23
45,57:27
45,58:27
45,59:17
45,60:30
45,61:30
45,63:2
45,64:16
45,65:29
45,66:16
45,67:23
45,68:14
45,69:30
45,70:23
46,40:3
46,41:19
46,42:3
46,43:4
46,47:10
46,48:3
46,49:4
46,51:33
46,52:33
46,54:17
46,55:4
46,56:10
46,57:6
46,58:6
46,59:16
46,60:3
46,61:3
46,62:33
46,63:31
46,64:17
46,65:4
46,66:17
46,67:10
46,68:19
46,69:3
46,70:10
47,36:10
47,37:10
47,38:10
47,39:10
47,40:7
47,41:9
47,42:7
47,43:6
47,48:7
47,49:6
47,50:6
47,51:23
47,52:23
47,53:10
47,54:7
47,55:6
47,57:4
47,58:4
47,59:6
47,60:7
47,61:7
47,62:23
47,63:21
47,64:7
47,65:6
47,66:7
47,68:9
47,69:7
48,36:3
48,37:3
48,38:3
48,39:3
48,41:16
48,43:1
48,44:30
48,45:30
48,46:3
48,47:7
48,49:1
48,51:30
48,52:30
48,53:3
48,54:14
48,55:1
48,56:7
48,57:3
48,58:3
48,59:13
48,62:30
48,63:28
48,64:14
48,65:1
48,66:14
48,67:7
48,68:16
48,70:7
49,36:4
49,37:4
49,38:4
49,39:4
49,40:1
49,41:15
49,42:1
49,44:29
49,45:29
49,46:4
49,47:6
49,51:29
49,52:29
49,53:4
49,54:13
49,56:6
49,57:2
49,58:2
49,59:12
49,60:1
49,61:1
49,62:29
49,63:27
49,64:13
49,66:13
49,67:6
49,68:15
49,69:1
49,70:6
50,51:29
50,52:29
50,53:4
50,54:13
50,56:6
50,57:2
50,58:2
50,59:12
50,60:1
50,61:1
50,62:29
50,63:27
50,64:13
50,66:13
50,67:6
50,68:15
50,69:1
50,70:6
51,36:33
51,37:33
51,38:33
51,39:33
51,40:30
51,41:14
51,42:30
51,43:29
51,46:33
51,47:23
51,48:30
51,49:29
51,50:29
51,53:33
51,56:23
51,57:27
51,58:27
51,59:17
51,60:30
51,61:30
51,63:2
51,64:16
51,65:29
51,66:16
51,67:23
51,68:14
51,69:30
51,70:23
52,36:33
52,37:33
52,38:33
52,39:33
52,40:30
52,41:14
52,42:30
52,43:29
52,46:33
52,47:23
52,48:30
52,49:29
52,50:29
52,53:33
52,54:16
52,56:23
52,57:27
52,58:27
52,59:17
52,60:30
52,61:30
52,63:2
52,64:16
52,65:29
52,66:16
52,67:23
52,68:14
52,69:30
52,70:23
53,40:3
53,41:19
53,42:3
53,43:4
53,44:33
53,45:33
53,47:10
53,48:3
53,49:4
53,50:4
53,51:33
53,52:33
53,54:17
53,56:10
53,57:6
53,58:6
53,59:16
53,60:3
53,61:3
53,62:33
53,63:31
53,64:17
53,65:4
53,66:17
53,67:10
53,68:19
53,69:3
53,70:10
54,36:17
54,37:17
54,38:17
54,39:17
54,40:14
54,41:2
54,42:14
54,43:13
54,44:16
54,45:16
54,46:17
54,47:7
54,48:14
54,49:13
54,50:13
54,55:13
54,56:7
54,57:11
54,58:11
54,59:1
54,60:14
54,61:14
54,62:16
54,63:14
54,65:13
54,67:7
54,68:2
54,69:14
54,70:7
55,36:4
55,37:4
55,38:4
55,39:4
55,40:1
55,41:15
55,42:1
55,44:29
55,45:29
55,46:4
55,47:6
55,48:1
55,56:6
55,57:2
55,58:2
55,59:12
55,60:1
55,61:1
55,62:29
55,63:27
55,64:13
55,66:13
55,67:6
55,68:15
55,69:1
55,70:6
56,36:10
56,37:10
56,38:10
56,39:10
56,40:7
56,41:9
56,42:7
56,43:6
56,44:23
56,45:23
56,46:10
56,48:7
56,49:6
56,50:6
56,51:23
56,52:23
56,53:10
56,54:7
56,55:6
56,57:4
56,58:4
56,59:6
56,60:7
56,61:7
56,62:23
56,63:21
56,64:7
56,65:6
56,66:7
56,68:9
56,69:7
57,1:8
57,2:8
57,3:8
57,4:7
57,5:8
57,6:13
57,7:7
57,8:4
57,9:13
57,10:3
57,11:16
57,12:16
57,14:21
57,20:13
57,21:13
57,22:21
57,23:25
57,24:8
57,25:10
57,26:3
57,27:3
57,28:4
57,29:3
57,30:8
57,31:4
57,32:4
57,33:25
57,34:3
57,35:27
57,36:6
57,37:6
57,38:6
57,39:6
57,40:3
57,41:13
57,42:3
57,43:2
57,44:27
57,45:27
57,46:6
57,47:4
57,48:3
57,49:2
57,50:2
57,51:27
57,52:27
57,53:6
57,54:11
57,55:2
57,56:4
57,61:3
57,62:27
57,63:25
57,64:11
57,65:2
57,66:11
57,67:4
57,68:13
57,69:3
57,70:4
58,1:8
58,2:8
58,3:8
58,4:7
58,5:8
58,6:13
58,7:7
58,8:4
58,9:13
58,10:3
58,11:16
58,12:16
58,14:21
58,20:13
58,21:13
58,22:21
58,23:25
58,24:8
58,25:10
58,26:3
58,27:3
58,28:4
58,29:3
58,30:8
58,31:4
58,32:4
58,33:25
58,34:3
58,35:27
58,36:6
58,37:6
58,38:6
58,39:6
58,40:3
58,41:13
58,42:3
58,43:2
58,44:27
58,45:27
58,46:6
58,47:4
58,48:3
58,49:2
58,50:2
58,51:27
58,52:27
58,53:6
58,54:11
58,55:2
58,56:4
58,59:10
58,61:3
58,62:27
58,63:25
58,64:11
58,65:2
58,66:11
58,67:4
58,68:13
58,69:3
58,70:4
59,1:2
59,2:2
59,3:2
59,4:17
59,5:2
59,6:3
59,7:17
59,8:6
59,9:3
59,10:7
59,11:6
59,12:6
59,13:10
59,14:11
59,20:3
59,21:3
59,22:11
59,23:15
59,24:2
59,26:13
59,27:13
59,28:6
59,29:13
59,30:2
59,31:6
59,32:6
59,33:15
59,34:13
59,35:17
59,36:16
59,37:16
59,38:16
59,39:16
59,40:13
59,41:3
59,42:13
59,43:12
59,44:17
59,45:17
59,46:16
59,47:6
59,48:13
59,49:12
59,50:12
59,51:17
59,52:17
59,53:16
59,54:1
59,55:12
59,56:6
59,60:13
59,61:13
59,62:17
59,63:15
59,64:1
59,65:12
59,66:1
59,67:6
59,68:3
59,69:13
59,70:6
60,36:3
60,37:3
60,38:3
60,39:3
60,41:16
60,43:1
60,44:30
60,45:30
60,46:3
60,47:7
60,49:1
60,50:1
60,51:30
60,52:30
60,53:3
60,54:14
60,55:1
60,56:7
60,62:30
60,63:28
60,64:14
60,65:1
60,66:14
60,67:7
60,68:16
60,70:7
61,36:3
61,37:3
61,38:3
61,39:3
61,41:16
61,43:1
61,44:30
61,45:30
61,46:3
61,47:7
61,49:1
61,50:1
61,51:30
61,52:30
61,53:3
61,54:14
61,55:1
61,56:7
61,57:3
61,58:3
61,59:13
61,62:30
61,63:28
61,64:14
61,65:1
61,66:14
61,67:7
61,68:16
61,70:7
62,36:33
62,37:33
62,38:33
62,39:33
62,40:30
62,41:14
62,42:30
62,43:29
62,46:33
62,47:23
62,48:30
62,49:29
62,50:29
62,53:33
62,54:16
62,55:29
62,56:23
62,57:27
62,58:27
62,59:17
62,60:30
62,61:30
62,63:2
62,68:14
62,69:30
62,70:23
63,36:31
63,37:31
63,38:31
63,39:31
63,40:28
63,41:12
63,42:28
63,43:27
63,44:2
63,45:2
63,46:31
63,47:21
63,48:28
63,49:27
63,50:27
63,51:2
63,52:2
63,53:31
63,54:14
63,55:27
63,56:21
63,57:25
63,58:25
63,59:15
63,60:28
63,61:28
63,64:14
63,68:12
63,69:28
63,70:21
64,36:17
64,37:17
64,38:17
64,39:17
64,40:14
64,41:2
64,42:14
64,43:13
64,44:16
64,45:16
64,46:17
64,47:7
64,48:14
64,49:13
64,50:13
64,51:16
64,52:16
64,53:17
64,55:13
64,56:7
64,57:11
64,58:11
64,59:1
64,60:14
64,61:14
64,65:13
64,67:7
64,68:2
64,69:14
64,70:7
65,36:4
65,37:4
65,38:4
65,39:4
65,40:1
65,41:15
65,42:1
65,44:29
65,45:29
65,46:4
65,47:6
65,48:1
65,51:29
65,52:29
65,53:4
65,54:13
65,56:6
65,57:2
65,58:2
65,59:12
65,60:1
65,66:13
65,67:6
65,68:15
65,69:1
65,70:6
66,36:17
66,37:17
66,38:17
66,39:17
66,40:14
66,41:2
66,42:14
66,43:13
66,44:16
66,45:16
66,46:17
66,47:7
66,48:14
66,49:13
66,50:13
66,51:16
66,52:16
66,53:17
66,55:13
66,56:7
66,57:11
66,58:11
66,59:1
66,60:14
66,61:14
66,65:13
66,67:7
66,68:2
66,69:14
66,70:7
67,36:10
67,37:10
67,38:10
67,39:10
67,40:7
67,41:9
67,42:7
67,43:6
67,44:23
67,45:23
67,46:10
67,48:7
67,49:6
67,50:6
67,51:23
67,52:23
67,53:10
67,54:7
67,55:6
67,57:4
67,58:4
67,59:6
67,60:7
67,61:7
67,65:6
67,66:7
67,68:9
67,69:7
68,4:20
68,5:5
68,7:20
68,8:9
68,10:10
68,11:3
68,12:3
68,13:13
68,14:8
68,15:20
68,16:10
68,17:3
68,18:5
68,19:5
68,22:8
68,23:12
68,24:5
68,25:3
68,26:16
68,27:16
68,28:9
68,29:16
68,30:5
68,31:9
68,32:9
68,33:12
68,34:16
68,35:14
68,36:19
68,37:19
68,38:19
68,39:19
68,40:16
68,42:16
68,43:15
68,44:14
68,45:14
68,46:19
68,47:9
68,48:16
68,49:15
68,50:15
68,51:14
68,52:14
68,53:19
68,54:2
68,55:15
68,56:9
68,57:13
68,58:13
68,59:3
68,60:16
68,61:16
68,62:14
68,63:12
68,64:2
68,65:15
68,66:2
68,67:9
68,69:16
68,70:9
69,2:11
69,3:11
69,4:4
69,5:11
69,6:16
69,7:4
69,8:7
69,9:16
69,10:6
69,11:19
69,12:19
69,13:3
69,14:24
69,15:4
69,16:6
69,17:19
69,18:11
69,19:11
69,20:16
69,21:16
69,22:24
69,23:28
69,24:11
69,25:13
69,28:7
69,30:11
69,31:7
69,32:7
69,33:28
69,35:30
69,36:3
69,37:3
69,38:3
69,39:3
69,41:16
69,43:1
69,44:30
69,45:30
69,46:3
69,47:7
69,49:1
69,50:1
69,51:30
69,52:30
69,53:3
69,54:14
69,55:1
69,56:7
69,57:3
69,58:3
69,59:13
69,62:30
69,63:28
69,64:14
69,65:1
69,66:14
69,67:7
69,68:16
69,70:7
70,2:4
70,3:4
70,4:11
70,5:4
70,6:9
70,7:11
70,9:9
70,10:1
70,11:12
70,12:12
70,13:4
70,14:17
70,15:11
70,16:1
70,17:12
70,18:4
70,19:4
70,20:9
70,21:9
70,22:17
70,23:21
70,24:4
70,25:6
70,26:7
70,27:7
70,29:7
70,30:4
70,33:21
70,34:7
70,35:23
70,36:10
70,37:10
70,38:10
70,39:10
70,40:7
70,41:9
70,42:7
70,43:6
70,44:23
70,45:23
70,46:10
70,48:7
70,49:6
70,50:6
70,51:23
70,52:23
70,53:10
70,54:7
70,55:6
70,57:4
70,58:4
70,59:6
70,60:7
70,61:7
70,62:23
70,63:21
70,64:7
70,65:6
70,66:7
70,68:9
70,69:7

<setup times backward>
1,9:5
1,11:8
1,17:8
1,20:5
1,21:5
1,22:13
1,59:2
2,9:5
2,11:8
2,17:8
2,20:5
2,21:5
2,22:13
2,41:5
2,59:2
3,9:5
3,11:8
3,17:8
3,20:5
3,21:5
3,22:13
3,41:5
3,59:2
4,1:15
4,2:15
4,3:15
4,5:15
4,9:20
4,10:10
4,11:23
4,16:10
4,17:23
4,18:15
4,19:15
4,20:20
4,21:20
4,22:28
4,24:15
4,30:15
4,41:20
4,57:7
4,58:7
4,59:17
4,68:20
4,69:4
4,70:11
5,9:5
5,11:8
5,17:8
5,20:5
5,21:5
5,22:13
5,41:5
5,59:2
5,68:5
6,11:3
6,17:3
6,22:8
7,1:15
7,2:15
7,3:15
7,5:15
7,6:20
7,9:20
7,10:10
7,11:23
7,16:10
7,17:23
7,18:15
7,19:15
7,20:20
7,21:20
7,22:28
7,24:15
7,30:15
7,41:20
7,57:7
7,58:7
7,59:17
7,68:20
7,69:4
7,70:11
8,1:4
8,2:4
8,3:4
8,5:4
8,6:9
8,9:9
8,11:12
8,17:12
8,18:4
8,19:4
8,20:9
8,21:9
8,22:17
8,24:4
8,30:4
8,41:9
8,59:6
8,68:9
9,17:3
9,22:8
10,1:5
10,2:5
10,3:5
10,5:5
10,6:10
10,8:1
10,9:10
10,17:13
10,18:5
10,19:5
10,20:10
10,21:10
10,22:18
10,24:5
10,30:5
10,41:10
10,59:7
10,68:10
10,70:1
11,22:5
12,22:5
13,1:8
13,2:8
13,3:8
13,5:8
13,6:13
13,8:4
13,9:13
13,10:3
13,11:16
13,12:16
13,14:21
13,16:3
13,17:16
13,18:8
13,19:8
13,20:13
13,21:13
13,22:21
13,24:8
13,30:8
13,41:13
13,59:10
13,68:13
13,70:4
15,1:15
15,2:15
15,3:15
15,5:15
15,6:20
15,8:11
15,9:20
15,10:10
15,11:23
15,12:23
15,13:7
15,14:28
15,24:15
15,30:15
15,41:20
15,68:20
15,69:4
15,70:11
16,1:5
16,2:5
16,3:5
16,5:5
16,6:10
16,8:1
16,9:10
16,11:13
16,12:13
16,14:18
16,24:5
16,30:5
16,41:10
16,68:10
16,70:1
17,14:5
18,6:5
18,9:5
18,11:8
18,12:8
18,14:13
18,17:8
18,41:5
18,68:5
19,6:5
19,9:5
19,11:8
19,12:8
19,14:13
19,17:8
19,41:5
19,68:5
20,11:3
20,12:3
20,14:8
20,17:3
20,22:8
21,11:3
21,12:3
21,14:8
21,17:3
21,22:8
24,6:5
24,9:5
24,11:8
24,12:8
24,14:13
24,17:8
24,20:5
24,21:5
24,22:13
24,23:17
24,33:17
24,41:5
24,59:2
24,68:5
25,6:3
25,9:3
25,11:6
25,12:6
25,14:11
25,17:6
25,20:3
25,21:3
25,22:11
25,23:15
25,33:15
25,41:3
25,68:3
26,1:11
26,2:11
26,3:11
26,5:11
26,6:16
26,8:7
26,9:16
26,10:6
26,11:19
26,12:19
26,13:3
26,14:24
26,16:6
26,17:19
26,18:11
26,19:11
26,20:16
26,21:16
26,22:24
26,23:28
26,24:11
26,25:13
26,28:7
26,30:11
26,31:7
26,32:7
26,33:28
26,41:16
26,57:3
26,58:3
26,59:13
26,68:16
26,70:7
27,1:11
27,2:11
27,3:11
27,5:11
27,6:16
27,8:7
27,9:16
27,10:6
27,11:19
27,12:19
27,13:3
27,14:24
27,16:6
27,17:19
27,18:11
27,19:11
27,20:16
27,21:16
27,22:24
27,23:28
27,24:11
27,25:13
27,28:7
27,30:11
27,31:7
27,32:7
27,33:28
27,41:16
27,57:3
27,58:3
27,59:13
27,68:16
27,70:7
28,1:4
28,2:4
28,3:4
28,5:4
28,6:9
28,9:9
28,11:12
28,12:12
28,14:17
28,17:12
28,18:4
28,19:4
28,20:9
28,21:9
28,22:17
28,23:21
28,24:4
28,25:6
28,30:4
28,33:21
28,41:9
28,59:6
28,68:9
29,1:11
29,2:11
29,3:11
29,5:11
29,6:16
29,8:7
29,9:16
29,10:6
29,11:19
29,12:19
29,13:3
29,14:24
29,16:6
29,17:19
29,18:11
29,19:11
29,20:16
29,21:16
29,22:24
29,23:28
29,24:11
29,25:13
29,28:7
29,30:11
29,31:7
29,32:7
29,33:28
29,41:16
29,57:3
29,58:3
29,59:13
29,68:16
29,70:7
30,6:5
30,9:5
30,11:8
30,12:8
30,14:13
30,17:8
30,20:5
30,21:5
30,22:13
30,23:17
30,25:2
30,33:17
30,41:5
30,59:2
30,68:5
31,1:4
31,2:4
31,3:4
31,5:4
31,6:9
31,9:9
31,11:12
31,12:12
31,14:17
31,17:12
31,18:4
31,19:4
31,20:9
31,21:9
31,22:17
31,23:21
31,24:4
31,25:6
31,30:4
31,33:21
31,41:9
31,59:6
31,68:9
32,1:4
32,2:4
32,3:4
32,5:4
32,6:9
32,9:9
32,11:12
32,12:12
32,14:17
32,17:12
32,18:4
32,19:4
32,20:9
32,21:9
32,22:17
32,23:21
32,24:4
32,25:6
32,30:4
32,33:21
32,41:9
32,59:6
32,68:9
34,1:11
34,2:11
34,3:11
34,5:11
34,6:16
34,8:7
34,9:16
34,10:6
34,11:19
34,12:19
34,13:3
34,14:24
34,16:6
34,17:19
34,18:11
34,19:11
34,20:16
34,21:16
34,22:24
34,23:28
34,24:11
34,25:13
34,28:7
34,30:11
34,31:7
34,32:7
34,33:28
34,41:16
34,57:3
34,58:3
34,59:13
34,68:16
34,70:7
36,1:14
36,2:14
36,3:14
36,5:14
36,6:19
36,8:10
36,9:19
36,10:9
36,11:22
36,12:22
36,13:6
36,14:27
36,16:9
36,17:22
36,18:14
36,19:14
36,20:19
36,21:19
36,22:27
36,23:31
36,24:14
36,25:16
36,26:3
36,27:3
36,28:10
36,29:3
36,30:14
36,31:10
36,32:10
36,33:31
36,34:3
36,35:33
36,41:19
36,44:33
36,45:33
36,47:10
36,48:3
36,49:4
36,51:33
36,52:33
36,54:17
36,55:4
36,56:10
36,57:6
36,58:6
36,59:16
36,60:3
36,61:3
36,62:33
36,63:31
36,64:17
36,65:4
36,66:17
36,67:10
36,68:19
36,69:3
36,70:10
37,1:14
37,2:14
37,3:14
37,5:14
37,6:19
37,8:10
37,9:19
37,10:9
37,11:22
37,12:22
37,13:6
37,14:27
37,16:9
37,17:22
37,18:14
37,19:14
37,20:19
37,21:19
37,22:27
37,23:31
37,24:14
37,25:16
37,26:3
37,27:3
37,28:10
37,29:3
37,30:14
37,31:10
37,32:10
37,33:31
37,34:3
37,35:33
37,41:19
37,44:33
37,45:33
37,47:10
37,48:3
37,49:4
37,51:33
37,52:33
37,54:17
37,55:4
37,56:10
37,57:6
37,58:6
37,59:16
37,60:3
37,61:3
37,62:33
37,63:31
37,64:17
37,65:4
37,66:17
37,67:10
37,68:19
37,69:3
37,70:10
38,1:14
38,2:14
38,3:14
38,5:14
38,6:19
38,8:10
38,9:19
38,10:9
38,11:22
38,12:22
38,13:6
38,14:27
38,16:9
38,17:22
38,18:14
38,19:14
38,20:19
38,21:19
38,22:27
38,23:31
38,24:14
38,25:16
38,26:3
38,27:3
38,28:10
38,29:3
38,30:14
38,31:10
38,32:10
38,33:31
38,34:3
38,35:33
38,41:19
38,44:33
38,45:33
38,47:10
38,48:3
38,49:4
38,51:33
38,52:33
38,54:17
38,55:4
38,56:10
38,57:6
38,58:6
38,59:16
38,60:3
38,61:3
38,62:33
38,63:31
38,64:17
38,65:4
38,66:17
38,67:10
38,68:19
38,69:3
38,70:10
39,1:14
39,2:14
39,3:14
39,5:14
39,6:19
39,8:10
39,9:19
39,10:9
39,11:22
39,12:22
39,13:6
39,14:27
39,16:9
39,17:22
39,18:14
39,19:14
39,20:19
39,21:19
39,22:27
39,23:31
39,24:14
39,25:16
39,26:3
39,27:3
39,28:10
39,29:3
39,30:14
39,31:10
39,32:10
39,33:31
39,34:3
39,35:33
39,41:19
39,44:33
39,45:33
39,47:10
39,48:3
39,49:4
39,51:33
39,52:33
39,54:17
39,55:4
39,56:10
39,57:6
39,58:6
39,59:16
39,60:3
39,61:3
39,62:33
39,63:31
39,64:17
39,65:4
39,66:17
39,67:10
39,68:19
39,69:3
39,70:10
40,1:11
40,2:11
40,3:11
40,5:11
40,6:16
40,8:7
40,9:16
40,10:6
40,11:19
40,12:19
40,13:3
40,14:24
40,16:6
40,17:19
40,18:11
40,19:11
40,20:16
40,21:16
40,22:24
40,23:28
40,24:11
40,25:13
40,28:7
40,30:11
40,31:7
40,32:7
40,33:28
40,35:30
40,41:16
40,44:30
40,45:30
40,47:7
40,49:1
40,51:30
40,52:30
40,54:14
40,55:1
40,56:7
40,57:3
40,58:3
40,59:13
40,62:30
40,63:28
40,64:14
40,65:1
40,66:14
40,67:7
40,68:16
40,70:7
41,11:3
41,12:3
41,14:8
41,17:3
41,22:8
41,23:12
41,33:12
41,35:14
41,44:14
41,45:14
41,51:14
41,52:14
41,62:14
41,63:12
42,1:11
42,2:11
42,3:11
42,5:11
42,6:16
42,8:7
42,9:16
42,10:6
42,11:19
42,12:19
42,13:3
42,14:24
42,16:6
42,17:19
42,18:11
42,19:11
42,20:16
42,21:16
42,22:24
42,23:28
42,24:11
42,25:13
42,28:7
42,30:11
42,31:7
42,32:7
42,33:28
42,35:30
42,41:16
42,44:30
42,45:30
42,47:7
42,49:1
42,51:30
42,52:30
42,54:14
42,55:1
42,56:7
42,57:3
42,58:3
42,59:13
42,62:30
42,63:28
42,64:14
42,65:1
42,66:14
42,67:7
42,68:16
42,70:7
43,1:10
43,2:10
43,3:10
43,5:10
43,6:15
43,8:6
43,9:15
43,10:5
43,11:18
43,12:18
43,13:2
43,14:23
43,16:5
43,17:18
43,18:10
43,19:10
43,20:15
43,21:15
43,22:23
43,23:27
43,24:10
43,25:12
43,28:6
43,30:10
43,31:6
43,32:6
43,33:27
43,35:29
43,41:15
43,44:29
43,45:29
43,47:6
43,51:29
43,52:29
43,54:13
43,56:6
43,57:2
43,58:2
43,59:12
43,62:29
43,63:27
43,64:13
43,66:13
43,67:6
43,68:15
43,70:6
46,1:14
46,2:14
46,3:14
46,5:14
46,6:19
46,8:10
46,9:19
46,10:9
46,11:22
46,12:22
46,13:6
46,14:27
46,16:9
46,17:22
46,18:14
46,19:14
46,20:19
46,21:19
46,22:27
46,23:31
46,24:14
46,25:16
46,26:3
46,27:3
46,28:10
46,29:3
46,30:14
46,31:10
46,32:10
46,33:31
46,34:3
46,35:33
46,40:3
46,41:19
46,42:3
46,43:4
46,44:33
46,45:33
46,48:3
46,49:4
46,51:33
46,52:33
46,54:17
46,55:4
46,56:10
46,57:6
46,58:6
46,59:16
46,60:3
46,61:3
46,62:33
46,63:31
46,64:17
46,65:4
46,66:17
46,67:10
46,68:19
46,69:3
46,70:10
47,1:4
47,2:4
47,3:4
47,5:4
47,6:9
47,9:9
47,11:12
47,12:12
47,14:17
47,17:12
47,18:4
47,19:4
47,20:9
47,21:9
47,22:17
47,23:21
47,24:4
47,25:6
47,30:4
47,33:21
47,35:23
47,41:9
47,44:23
47,45:23
47,51:23
47,52:23
47,54:7
47,59:6
47,62:23
47,63:21
47,64:7
47,66:7
47,68:9
48,1:11
48,2:11
48,3:11
48,5:11
48,6:16
48,8:7
48,9:16
48,10:6
48,11:19
48,12:19
48,13:3
48,14:24
48,16:6
48,17:19
48,18:11
48,19:11
48,20:16
48,21:16
48,22:24
48,23:28
48,24:11
48,25:13
48,28:7
48,30:11
48,31:7
48,32:7
48,33:28
48,35:30
48,41:16
48,43:1
48,44:30
48,45:30
48,47:7
48,51:30
48,52:30
48,54:14
48,55:1
48,56:7
48,57:3
48,58:3
48,59:13
48,62:30
48,63:28
48,64:14
48,65:1
48,66:14
48,67:7
48,68:16
48,70:7
49,1:10
49,2:10
49,3:10
49,5:10
49,6:15
49,8:6
49,9:15
49,10:5
49,11:18
49,12:18
49,13:2
49,14:23
49,16:5
49,17:18
49,18:10
49,19:10
49,20:15
49,21:15
49,22:23
49,23:27
49,24:10
49,25:12
49,28:6
49,30:10
49,31:6
49,32:6
49,33:27
49,35:29
49,41:15
49,44:29
49,45:29
49,47:6
49,51:29
49,52:29
49,54:13
49,56:6
49,57:2
49,58:2
49,59:12
49,62:29
49,63:27
49,64:13
49,66:13
49,67:6
49,68:15
49,70:6
50,1:10
50,2:10
50,3:10
50,5:10
50,6:15
50,8:6
50,9:15
50,10:5
50,11:18
50,12:18
50,13:2
50,14:23
50,16:5
50,17:18
50,18:10
50,19:10
50,20:15
50,21:15
50,22:23
50,23:27
50,24:10
50,25:12
50,28:6
50,30:10
50,31:6
50,32:6
50,33:27
50,35:29
50,41:15
50,44:29
50,45:29
50,47:6
50,51:29
50,52:29
50,54:13
50,56:6
50,57:2
50,58:2
50,59:12
50,62:29
50,63:27
50,64:13
50,66:13
50,67:6
50,68:15
50,70:6
53,1:14
53,2:14
53,3:14
53,5:14
53,6:19
53,8:10
53,9:19
53,10:9
53,11:22
53,12:22
53,13:6
53,14:27
53,16:9
53,17:22
53,18:14
53,19:14
53,20:19
53,21:19
53,22:27
53,23:31
53,24:14
53,25:16
53,26:3
53,27:3
53,28:10
53,29:3
53,30:14
53,31:10
53,32:10
53,33:31
53,34:3
53,35:33
53,40:3
53,41:19
53,42:3
53,43:4
53,44:33
53,45:33
53,47:10
53,48:3
53,49:4
53,50:4
53,51:33
53,52:33
53,56:10
53,57:6
53,58:6
53,59:16
53,60:3
53,61:3
53,62:33
53,63:31
53,64:17
53,65:4
53,66:17
53,67:10
53,68:19
53,69:3
53,70:10
54,6:2
54,9:2
54,11:5
54,12:5
54,14:10
54,17:5
54,20:2
54,21:2
54,22:10
54,23:14
54,33:14
54,35:16
54,41:2
54,44:16
54,45:16
54,51:16
54,52:16
54,62:16
54,63:14
54,68:2
55,1:10
55,2:10
55,3:10
55,5:10
55,6:15
55,8:6
55,9:15
55,10:5
55,11:18
55,12:18
55,13:2
55,14:23
55,16:5
55,17:18
55,18:10
55,19:10
55,20:15
55,21:15
55,22:23
55,23:27
55,24:10
55,25:12
55,28:6
55,30:10
55,31:6
55,32:6
55,33:27
55,35:29
55,41:15
55,44:29
55,45:29
55,47:6
55,51:29
55,52:29
55,54:13
55,56:6
55,57:2
55,58:2
55,59:12
55,62:29
55,63:27
55,64:13
55,66:13
55,67:6
55,68:15
55,70:6
56,1:4
56,2:4
56,3:4
56,5:4
56,6:9
56,9:9
56,11:12
56,12:12
56,14:17
56,17:12
56,18:4
56,19:4
56,20:9
56,21:9
56,22:17
56,23:21
56,24:4
56,25:6
56,30:4
56,33:21
56,35:23
56,41:9
56,44:23
56,45:23
56,51:23
56,52:23
56,54:7
56,59:6
56,62:23
56,63:21
56,64:7
56,66:7
56,68:9
57,1:8
57,2:8
57,3:8
57,5:8
57,6:13
57,8:4
57,9:13
57,10:3
57,11:16
57,12:16
57,14:21
57,16:3
57,17:16
57,18:8
57,19:8
57,20:13
57,21:13
57,22:21
57,23:25
57,24:8
57,25:10
57,28:4
57,30:8
57,31:4
57,32:4
57,33:25
57,35:27
57,41:13
57,44:27
57,45:27
57,47:4
57,51:27
57,52:27
57,54:11
57,56:4
57,62:27
57,63:25
57,64:11
57,66:11
57,67:4
57,68:13
57,70:4
58,1:8
58,2:8
58,3:8
58,5:8
58,6:13
58,8:4
58,9:13
58,10:3
58,11:16
58,12:16
58,14:21
58,16:3
58,17:16
58,18:8
58,19:8
58,20:13
58,21:13
58,22:21
58,23:25
58,24:8
58,25:10
58,28:4
58,30:8
58,31:4
58,32:4
58,33:25
58,35:27
58,41:13
58,44:27
58,45:27
58,47:4
58,51:27
58,52:27
58,54:11
58,56:4
58,62:27
58,63:25
58,64:11
58,66:11
58,67:4
58,68:13
58,70:4
59,6:3
59,9:3
59,11:6
59,12:6
59,14:11
59,17:6
59,20:3
59,21:3
59,22:11
59,23:15
59,33:15
59,35:17
59,41:3
59,44:17
59,45:17
59,51:17
59,52:17
59,54:1
59,62:17
59,63:15
59,64:1
59,66:1
59,68:3
60,1:11
60,2:11
60,3:11
60,5:11
60,6:16
60,8:7
60,9:16
60,10:6
60,11:19
60,12:19
60,13:3
60,14:24
60,16:6
60,17:19
60,18:11
60,19:11
60,20:16
60,21:16
60,22:24
60,23:28
60,24:11
60,25:13
60,28:7
60,30:11
60,31:7
60,32:7
60,33:28
60,35:30
60,41:16
60,43:1
60,44:30
60,45:30
60,47:7
60,49:1
60,50:1
60,51:30
60,52:30
60,54:14
60,55:1
60,56:7
60,57:3
60,58:3
60,59:13
60,62:30
60,63:28
60,64:14
60,65:1
60,66:14
60,67:7
60,68:16
60,70:7
61,1:11
61,2:11
61,3:11
61,5:11
61,6:16
61,8:7
61,9:16
61,10:6
61,11:19
61,12:19
61,13:3
61,14:24
61,16:6
61,17:19
61,18:11
61,19:11
61,20:16
61,21:16
61,22:24
61,23:28
61,24:11
61,25:13
61,28:7
61,30:11
61,31:7
61,32:7
61,33:28
61,35:30
61,41:16
61,43:1
61,44:30
61,45:30
61,47:7
61,49:1
61,50:1
61,51:30
61,52:30
61,54:14
61,55:1
61,56:7
61,57:3
61,58:3
61,59:13
61,62:30
61,63:28
61,64:14
61,66:14
61,67:7
61,68:16
61,70:7
63,35:2
63,44:2
63,45:2
63,51:2
63,52:2
63,62:2
64,6:2
64,9:2
64,11:5
64,12:5
64,14:10
64,17:5
64,20:2
64,21:2
64,22:10
64,23:14
64,33:14
64,35:16
64,41:2
64,44:16
64,45:16
64,51:16
64,52:16
64,62:16
64,63:14
64,68:2
65,1:10
65,2:10
65,3:10
65,5:10
65,6:15
65,8:6
65,9:15
65,10:5
65,11:18
65,12:18
65,13:2
65,14:23
65,16:5
65,17:18
65,18:10
65,19:10
65,20:15
65,21:15
65,22:23
65,23:27
65,24:10
65,25:12
65,28:6
65,30:10
65,31:6
65,32:6
65,33:27
65,35:29
65,41:15
65,44:29
65,45:29
65,47:6
65,51:29
65,52:29
65,54:13
65,56:6
65,57:2
65,58:2
65,59:12
65,62:29
65,63:27
65,64:13
65,66:13
65,67:6
65,68:15
65,70:6
66,6:2
66,9:2
66,11:5
66,12:5
66,14:10
66,17:5
66,20:2
66,21:2
66,22:10
66,23:14
66,33:14
66,35:16
66,41:2
66,44:16
66,45:16
66,51:16
66,52:16
66,62:16
66,63:14
66,68:2
67,1:4
67,2:4
67,3:4
67,5:4
67,6:9
67,9:9
67,11:12
67,12:12
67,14:17
67,17:12
67,18:4
67,19:4
67,20:9
67,21:9
67,22:17
67,23:21
67,24:4
67,25:6
67,30:4
67,33:21
67,35:23
67,41:9
67,44:23
67,45:23
67,51:23
67,52:23
67,54:7
67,59:6
67,62:23
67,63:21
67,64:7
67,66:7
67,68:9
68,11:3
68,12:3
68,14:8
68,17:3
68,22:8
68,23:12
68,33:12
68,35:14
68,44:14
68,45:14
68,51:14
68,52:14
68,62:14
68,63:12
69,1:11
69,2:11
69,3:11
69,5:11
69,6:16
69,8:7
69,9:16
69,10:6
69,11:19
69,12:19
69,13:3
69,14:24
69,16:6
69,17:19
69,18:11
69,19:11
69,20:16
69,21:16
69,22:24
69,23:28
69,24:11
69,25:13
69,28:7
69,30:11
69,31:7
69,32:7
69,33:28
69,35:30
69,41:16
69,43:1
69,44:30
69,45:30
69,47:7
69,49:1
69,50:1
69,51:30
69,52:30
69,54:14
69,55:1
69,56:7
69,57:3
69,58:3
69,59:13
69,62:30
69,63:28
69,64:14
69,65:1
69,66:14
69,67:7
69,68:16
69,70:7
70,1:4
70,2:4
70,3:4
70,5:4
70,6:9
70,9:9
70,11:12
70,12:12
70,14:17
70,17:12
70,18:4
70,19:4
70,20:9
70,21:9
70,22:17
70,23:21
70,24:4
70,25:6
70,30:4
70,33:21
70,35:23
70,41:9
70,44:23
70,45:23
70,51:23
70,52:23
70,54:7
70,59:6
70,62:23
70,63:21
70,64:7
70,66:7
70,68:9

<end>

<optimal SALBP-1 value>
21


<rand seed>
467321153

